outputs/r105.txt.out
filename: R105
Vehicles: 25, Capacity: 200
Total customers : 101
No of routes: 40
Route #1: 27 28 53 58
Route #2: 40
Route #3: 21 73
Route #4: 72 74
Route #5: 75 56
Route #6: 39 67 4
Route #7: 23 41 22 26
Route #8: 12 80
Route #9: 68 77
Route #10: 3
Route #11: 79 78 34
Route #12: 33 81 9
Route #13: 71 35
Route #14: 65 51
Route #15: 76 50 1
Route #16: 69 29 24
Route #17: 54 55 25
Route #18: 13
Route #19: 94 6 89
Route #20: 95 97
Route #21: 92 59 99
Route #22: 5 60
Route #23: 83 8 46
Route #24: 82 7 88
Route #25: 31 70
Route #26: 30 20 66
Route #27: 62 10
Route #28: 90 32
Route #29: 63 11 19 48
Route #30: 47 36 49
Route #31: 64
Route #32: 45 18
Route #33: 52 84 17 93
Route #34: 85 61
Route #35: 16 44
Route #36: 14 38 86 91
Route #37: 96 37 100
Route #38: 98 87
Route #39: 2 42 57
Route #40: 15 43
Cost 2416
